WARNING: for repeatability, setting FPU to use double precision
============================[ Problem Statistics ]=============================
|                                                                             |
|  Number of variables:            50                                         |
|  Number of clauses:             218                                         |
|  Parse time:                   0.00 s                                       |
|                                                                             |
============================[ Search Statistics ]==============================
| Conflicts |          ORIGINAL         |          LEARNT          | Progress |
|           |    Vars  Clauses Literals |    Limit  Clauses Lit/Cl |          |
===============================================================================
===============================================================================
restarts              : 1
conflicts             : 51             (35294 /sec)
decisions             : 58             (0.00 % random) (40138 /sec)
propagations          : 631            (436678 /sec)
conflict literals     : 184            (15.21 % deleted)
Memory used           : 20.00 MB
CPU time              : 0.001445 s

UNSATISFIABLE
